webassembly/ejemplos_dzn/9/folder9_json_40.dzn
TERM = { '.', 'in_1', 'local_0', 'local_1', 'in_2', 's(1)', 's(0)', 'in_0'};
null = '.';
s = 9;
n = 9;
ndeps = 3;
max_registers_sz = 5;
NR = 2;
registers = [|'local_0', 's(1)', |'local_1', 'local_0'|];
dependencies = [|'i32.load16_u_4', 'i32.store16_7', |'i32.store16_7', 'i32.store16_8', |'i32.load16_s_5', 'i32.store16_7'|];
GET_ENUM = { GET1, GET2, GET3, GET4, GET5, GET6, GET7};
SET_ENUM = { SET1, SET2, SET3, SET4, SET5, SET6, SET7};
TEE_ENUM = { TEE1, TEE2, TEE3, TEE4, TEE5, TEE6, TEE7};
N = 4;
OP = { 'i32.load16_u_4', 'i32.load16_s_5', 'i32.store16_7', 'i32.store16_8' };
in_ops = [1, 1, 2, 2 ];
out_ops = [1, 1, 0, 0 ];
in1 = ['local_0', 's(0)', 's(1)', 'in_1' ];
in2 = ['.', '.', 'in_0', 'in_2' ];
in3 = ['.', '.', '.', '.' ];
out1 = ['s(0)', 's(1)', '.', '.' ];
out2 = ['.', '.', '.', '.' ];
out3 = ['.', '.', '.', '.' ];
comm = [false, false, false, false ];
gas = [1, 1, 1, 1 ];
sz = [1, 1, 1, 1 ];
stor = [false, false, true, true ];
lb = [ 1, 1, 1, 1 ];
ub = [ 9, 9, 9, 9 ];
startstack = [ 'in_0', 'in_1', 'in_2', null, null, null, null, null, null ];
endstack = [ null, null, null, null, null, null, null, null, null ];
